========================================================== 
File name: C:\DEGR\assets\definitions\MSRCPSP_Gen\200_40_64_10_B.def
Creation date: Wed May 03 10:47:36 CEST 2023
Website: http://imopse.ii.pwr.edu.pl/ 
Reference: 
Myszkowski P. B., Skowronski M. E., Olech L., Oslizlo K., 
Hybrid Ant Colony Optimization in solving Multi-Skill Resource-Constrained Project Scheduling Problem, 
Soft Computing, DOI: DOI 10.1007/s00500-014-1455-x 
========================================================== 
General characteristics: 
Tasks: 200
Resources: 40
Precedence relations: 64
Number of skill types: 10
========================================================== 
ResourceID 	 Salary 	 Skills 
1	 	 	63.8	 	 Q9: 0 	  Q3: 0 	 
2	 	 	85.1	 	 Q6: 3 	  Q3: 3 	  Q2: 1 	  Q8: 2 	  Q0: 0 	  Q1: 0 	 
3	 	 	36.8	 	 Q9: 3 	  Q5: 2 	 
4	 	 	29.9	 	 Q4: 0 	 
5	 	 	47.2	 	 Q8: 3 	  Q4: 3 	  Q2: 3 	  Q5: 3 	  Q6: 1 	  Q9: 1 	  Q3: 0 	  Q7: 2 	 
6	 	 	66.2	 	 Q7: 1 	 
7	 	 	27.5	 	 Q4: 3 	  Q9: 3 	  Q8: 2 	  Q1: 0 	  Q2: 3 	  Q6: 1 	 
8	 	 	49.6	 	 Q4: 3 	  Q3: 0 	  Q5: 0 	  Q7: 3 	  Q8: 1 	  Q6: 1 	  Q2: 3 	  Q1: 3 	 
9	 	 	25.2	 	 Q7: 0 	  Q2: 1 	 
10	 	 	78.6	 	 Q3: 2 	  Q6: 2 	  Q5: 2 	  Q7: 0 	  Q2: 1 	  Q1: 1 	  Q0: 3 	  Q9: 2 	 
11	 	 	97.8	 	 Q0: 1 	  Q4: 3 	  Q3: 2 	  Q5: 2 	 
12	 	 	56.6	 	 Q2: 2 	  Q9: 1 	 
13	 	 	22.9	 	 Q3: 2 	  Q1: 3 	  Q5: 2 	  Q2: 3 	  Q9: 0 	  Q6: 2 	  Q0: 3 	 
14	 	 	58.5	 	 Q0: 1 	  Q3: 3 	 
15	 	 	96.1	 	 Q7: 0 	  Q0: 0 	  Q8: 0 	  Q4: 2 	  Q2: 3 	  Q9: 3 	  Q5: 0 	 
16	 	 	18.5	 	 Q2: 3 	  Q0: 0 	  Q5: 1 	  Q1: 3 	  Q9: 3 	  Q3: 2 	 
17	 	 	86.9	 	 Q0: 1 	  Q9: 3 	  Q2: 1 	  Q4: 2 	 
18	 	 	27.8	 	 Q7: 3 	  Q1: 2 	  Q2: 0 	  Q6: 1 	  Q8: 2 	  Q5: 0 	  Q3: 1 	  Q4: 2 	 
19	 	 	77.4	 	 Q8: 3 	  Q5: 1 	  Q7: 2 	 
20	 	 	71.7	 	 Q1: 0 	  Q7: 0 	 
21	 	 	58.8	 	 Q5: 2 	  Q8: 2 	  Q4: 3 	  Q6: 2 	  Q7: 2 	  Q2: 3 	  Q9: 0 	  Q0: 1 	 
22	 	 	82.9	 	 Q8: 3 	  Q1: 3 	  Q9: 1 	 
23	 	 	80.6	 	 Q5: 0 	  Q7: 2 	  Q3: 0 	  Q8: 2 	 
24	 	 	39.2	 	 Q5: 1 	  Q6: 1 	  Q9: 1 	  Q4: 0 	  Q0: 3 	  Q8: 1 	 
25	 	 	62.8	 	 Q4: 2 	  Q3: 3 	  Q2: 2 	  Q1: 2 	  Q5: 0 	  Q0: 3 	  Q8: 2 	 
26	 	 	47.4	 	 Q2: 3 	  Q5: 1 	  Q9: 0 	  Q4: 3 	  Q3: 0 	  Q1: 2 	 
27	 	 	44.8	 	 Q6: 3 	  Q0: 0 	  Q2: 2 	  Q1: 3 	  Q7: 3 	  Q5: 0 	 
28	 	 	47.6	 	 Q2: 3 	  Q9: 1 	 
29	 	 	81.8	 	 Q1: 0 	  Q6: 3 	  Q4: 3 	  Q2: 3 	  Q7: 3 	  Q0: 3 	  Q9: 1 	 
30	 	 	11.1	 	 Q1: 3 	 
31	 	 	57.9	 	 Q6: 2 	  Q8: 3 	  Q5: 2 	  Q9: 1 	  Q3: 2 	 
32	 	 	18.3	 	 Q7: 2 	  Q6: 2 	  Q0: 1 	  Q8: 0 	  Q9: 2 	  Q2: 2 	  Q3: 3 	 
33	 	 	98.7	 	 Q2: 0 	  Q0: 2 	 
34	 	 	25.0	 	 Q7: 3 	  Q1: 3 	  Q4: 2 	  Q8: 3 	  Q0: 3 	 
35	 	 	69.2	 	 Q5: 3 	  Q4: 0 	  Q3: 3 	  Q0: 0 	  Q9: 3 	  Q6: 1 	  Q1: 3 	  Q8: 1 	  Q7: 2 	 
36	 	 	23.6	 	 Q2: 0 	 
37	 	 	24.1	 	 Q2: 2 	  Q4: 3 	  Q8: 1 	 
38	 	 	55.8	 	 Q2: 2 	  Q0: 2 	 
39	 	 	14.5	 	 Q1: 3 	  Q4: 3 	  Q0: 1 	  Q6: 3 	  Q7: 1 	  Q2: 3 	  Q3: 0 	 
40	 	 	99.6	 	 Q3: 0 	 
========================================================== 
TaskID 	 Duration 	 Skill 	 Predecessor IDs 
1	15	Q3:	1
2	29	Q9:	1
3	19	Q8:	0
4	18	Q9:	2
5	36	Q3:	0
6	18	Q4:	0
7	33	Q0:	3
8	34	Q5:	3
9	34	Q1:	1
10	28	Q8:	0	3	9
11	17	Q7:	1
12	27	Q3:	0
13	32	Q9:	0
14	12	Q8:	1
15	23	Q4:	2
16	18	Q8:	3
17	12	Q8:	0
18	35	Q9:	0
19	17	Q8:	2
20	34	Q2:	2
21	35	Q7:	3	6
22	11	Q2:	0
23	20	Q4:	0
24	31	Q2:	1
25	26	Q5:	2
26	16	Q9:	0
27	28	Q6:	2
28	30	Q3:	1
29	30	Q7:	1
30	18	Q8:	1
31	34	Q5:	1
32	40	Q0:	2
33	16	Q3:	1
34	32	Q9:	3
35	27	Q2:	3
36	29	Q0:	1
37	35	Q5:	1	17
38	14	Q7:	3
39	17	Q5:	3
40	14	Q9:	0
41	33	Q9:	0
42	28	Q7:	2
43	38	Q0:	2	18
44	19	Q9:	3
45	30	Q5:	1
46	9	Q3:	1
47	29	Q1:	0
48	27	Q8:	2
49	31	Q9:	1
50	16	Q9:	1	34
51	20	Q9:	3
52	28	Q2:	3	4
53	33	Q3:	2
54	37	Q0:	3
55	39	Q0:	2	52
56	39	Q0:	1
57	35	Q1:	1
58	34	Q2:	0
59	37	Q0:	3
60	19	Q8:	0	19
61	34	Q9:	0	43
62	32	Q3:	2
63	30	Q3:	2	50
64	37	Q9:	3
65	16	Q8:	0
66	22	Q9:	3
67	39	Q9:	3	40
68	16	Q5:	2
69	36	Q0:	3
70	23	Q8:	3
71	21	Q3:	3
72	11	Q1:	1	7
73	25	Q0:	3
74	36	Q8:	1
75	15	Q8:	3
76	12	Q0:	2	24
77	11	Q0:	1	27
78	15	Q7:	0
79	24	Q5:	0
80	30	Q9:	3
81	38	Q8:	0
82	9	Q8:	1
83	34	Q0:	3	27
84	16	Q1:	2
85	21	Q1:	0
86	10	Q5:	3
87	31	Q1:	3
88	26	Q3:	1
89	27	Q2:	2
90	30	Q1:	2
91	15	Q1:	3
92	27	Q0:	1
93	38	Q8:	0
94	36	Q8:	0	81
95	11	Q4:	0
96	36	Q2:	1
97	11	Q8:	2
98	15	Q0:	1
99	10	Q6:	2
100	10	Q8:	1
101	13	Q7:	2
102	9	Q4:	0
103	33	Q2:	3	81	86	85
104	19	Q1:	3	54
105	40	Q1:	1
106	16	Q0:	2	3
107	30	Q5:	0
108	25	Q0:	1
109	28	Q8:	2
110	15	Q5:	0
111	11	Q1:	0	7
112	27	Q7:	0
113	19	Q8:	1	96
114	30	Q2:	3	86
115	11	Q9:	1
116	18	Q1:	1
117	15	Q8:	1
118	28	Q8:	0
119	23	Q9:	2
120	40	Q7:	2
121	26	Q1:	2	108
122	39	Q1:	0
123	29	Q7:	1
124	40	Q2:	0
125	15	Q9:	2
126	14	Q0:	1
127	9	Q8:	3
128	30	Q0:	3	62
129	38	Q5:	0
130	21	Q3:	0
131	33	Q7:	3
132	27	Q2:	2
133	25	Q8:	1
134	28	Q5:	3
135	26	Q9:	3
136	25	Q2:	2
137	34	Q6:	1	103
138	11	Q8:	3
139	19	Q6:	2
140	17	Q7:	1
141	30	Q4:	2	131
142	25	Q1:	3	50
143	28	Q0:	2
144	20	Q7:	0	43
145	10	Q7:	3
146	17	Q5:	2
147	31	Q8:	3
148	9	Q4:	2	12
149	34	Q0:	2
150	28	Q2:	3	16	25
151	25	Q3:	2	28	150
152	37	Q0:	3
153	26	Q2:	3	104
154	13	Q9:	3
155	16	Q6:	2
156	37	Q2:	3
157	22	Q8:	3	61
158	14	Q0:	0	9
159	10	Q9:	3	24
160	38	Q9:	3	61	8
161	20	Q8:	3
162	33	Q1:	1	49
163	15	Q9:	1	135
164	16	Q9:	2
165	13	Q5:	0	30
166	11	Q8:	1	118	94
167	34	Q5:	3	136
168	31	Q4:	3
169	29	Q4:	2
170	34	Q3:	3	22
171	14	Q6:	3
172	22	Q2:	1
173	36	Q8:	1
174	31	Q8:	1	5
175	12	Q5:	2
176	34	Q5:	2
177	34	Q2:	2
178	17	Q3:	3
179	15	Q6:	2
180	40	Q7:	0	54
181	36	Q2:	2
182	15	Q8:	0	104	121
183	40	Q4:	3	74
184	29	Q4:	2
185	13	Q7:	3	161	31
186	28	Q3:	1	59
187	26	Q0:	3	64
188	40	Q1:	2	5
189	25	Q2:	0	90
190	28	Q3:	2	92
191	22	Q1:	2
192	32	Q6:	2	188
193	20	Q3:	2	147
194	21	Q5:	2
195	36	Q6:	3
196	15	Q5:	2
197	21	Q9:	3
198	26	Q7:	2
199	32	Q1:	3
200	10	Q4:	0	173
========================================================== 